TITL c2 in C2 
CELL 0.71073  22.7011   9.8731   7.2765  90.000  98.412  90.000 
ZERR   10.00   0.0028   0.0012   0.0010   0.000   0.011   0.000 
LATT -7 
SYMM -X, Y, -Z 
SFAC C H N O S 
UNIT 50 20 10 10 10 
 
L.S. 4 
BOND 
FMAP 2 
PLAN 20 
 
MOLE   1 
S 5 0.345100 0.535600 0.197900 11 0.05
S 5 0.654900 0.535600 0.802100 11 0.05
S 5 0.845100 0.035600 0.197900 11 0.05
S 5 0.154900 0.035600 0.802100 11 0.05
C 1 0.302700 0.434000 0.211300 11 0.05
C 1 0.697300 0.434000 0.788700 11 0.05
C 1 0.802700 0.934000 0.211300 11 0.05
C 1 0.197300 0.934000 0.788700 11 0.05
C 1 0.530200 0.359600 0.259000 11 0.05
C 1 0.469800 0.359600 0.741000 11 0.05
C 1 0.030200 0.859600 0.259000 11 0.05
C 1 0.969800 0.859600 0.741000 11 0.05
C 1 0.242600 0.037900 0.313800 11 0.05
C 1 0.757400 0.037900 0.686200 11 0.05
C 1 0.742600 0.537900 0.313800 11 0.05
C 1 0.257400 0.537900 0.686200 11 0.05
C 1 0.167200 0.082000 0.015900 11 0.05
C 1 0.832800 0.082000 0.984100 11 0.05
C 1 0.667200 0.582000 0.015900 11 0.05
C 1 0.332800 0.582000 0.984100 11 0.05
C 1 0.466500 0.546400 0.242300 11 0.05
C 1 0.533500 0.546400 0.757700 11 0.05
C 1 0.966500 0.046400 0.242300 11 0.05
C 1 0.033500 0.046400 0.757700 11 0.05
C 1 0.322500 0.064100 0.037800 11 0.05
C 1 0.677500 0.064100 0.962200 11 0.05
C 1 0.822500 0.564100 0.037800 11 0.05
C 1 0.177500 0.564100 0.962200 11 0.05
C 1 0.153200 0.156400 0.687100 11 0.05
C 1 0.846800 0.156400 0.312900 11 0.05
C 1 0.653200 0.656400 0.687100 11 0.05
C 1 0.346800 0.656400 0.312900 11 0.05
C 1 0.591600 0.297000 0.282800 11 0.05
C 1 0.408400 0.297000 0.717200 11 0.05
C 1 0.091600 0.797000 0.282800 11 0.05
C 1 0.908400 0.797000 0.717200 11 0.05
C 1 0.179700 0.220900 0.088600 11 0.05
C 1 0.820300 0.220900 0.911400 11 0.05
C 1 0.679700 0.720900 0.088600 11 0.05
C 1 0.320300 0.720900 0.911400 11 0.05
C 1 0.417200 0.466800 0.216500 11 0.05
C 1 0.582800 0.466800 0.783500 11 0.05
C 1 0.917200 0.966800 0.216500 11 0.05
C 1 0.082800 0.966800 0.783500 11 0.05
C 1 0.020000 0.000000 0.268200 11 0.05
C 1 0.020000 1.000000 0.268200 11 0.05
C 1 0.980000 0.000000 0.731800 11 0.05
C 1 0.980000 1.000000 0.731800 11 0.05
C 1 0.520000 0.500000 0.268200 11 0.05
C 1 0.480000 0.500000 0.731800 11 0.05
C 1 0.420500 0.329400 0.200300 11 0.05
C 1 0.579500 0.329400 0.799700 11 0.05
C 1 0.920500 0.829400 0.200300 11 0.05
C 1 0.079500 0.829400 0.799700 11 0.05
C 1 0.479700 0.289000 0.242800 11 0.05
C 1 0.520300 0.289000 0.757200 11 0.05
C 1 0.979700 0.789000 0.242800 11 0.05
C 1 0.020300 0.789000 0.757200 11 0.05
C 1 0.150700 0.271300 0.229800 11 0.05
C 1 0.849300 0.271300 0.770200 11 0.05
C 1 0.650700 0.771300 0.229800 11 0.05
C 1 0.349300 0.771300 0.770200 11 0.05
C 1 0.228500 0.113200 0.120600 11 0.05
C 1 0.771500 0.113200 0.879400 11 0.05
C 1 0.728500 0.613200 0.120600 11 0.05
C 1 0.271500 0.613200 0.879400 11 0.05
C 1 0.085400 0.335500 0.158500 11 0.05
C 1 0.914600 0.335500 0.841500 11 0.05
C 1 0.585400 0.835500 0.158500 11 0.05
C 1 0.414600 0.835500 0.841500 11 0.05
C 1 0.275100 0.125700 0.011400 11 0.05
C 1 0.724900 0.125700 0.988600 11 0.05
C 1 0.775100 0.625700 0.011400 11 0.05
C 1 0.224900 0.625700 0.988600 11 0.05
C 1 0.286400 0.122800 0.439500 11 0.05
C 1 0.713600 0.122800 0.560500 11 0.05
C 1 0.786400 0.622800 0.439500 11 0.05
C 1 0.213600 0.622800 0.560500 11 0.05
C 1 0.467500 0.020900 0.412400 11 0.05
C 1 0.532500 0.020900 0.587600 11 0.05
C 1 0.967500 0.520900 0.412400 11 0.05
C 1 0.032500 0.520900 0.587600 11 0.05
C 1 0.052600 0.382500 0.301500 11 0.05
C 1 0.947400 0.382500 0.698500 11 0.05
C 1 0.552600 0.882500 0.301500 11 0.05
C 1 0.447400 0.882500 0.698500 11 0.05
C 1 0.442700 0.040500 0.076100 11 0.05
C 1 0.557300 0.040500 0.923900 11 0.05
C 1 0.942700 0.540500 0.076100 11 0.05
C 1 0.057300 0.540500 0.923900 11 0.05
C 1 0.462000 0.139100 0.278500 11 0.05
C 1 0.538000 0.139100 0.721500 11 0.05
C 1 0.962000 0.639100 0.278500 11 0.05
C 1 0.038000 0.639100 0.721500 11 0.05
C 1 0.071500 0.037600 0.281600 11 0.05
C 1 0.928500 0.037600 0.718400 11 0.05
C 1 0.571500 0.537600 0.281600 11 0.05
C 1 0.428500 0.537600 0.718400 11 0.05
C 1 0.271000 0.232100 0.496100 11 0.05
C 1 0.729000 0.232100 0.503900 11 0.05
C 1 0.771000 0.732100 0.496100 11 0.05
C 1 0.229000 0.732100 0.503900 11 0.05
C 1 0.302100 0.632800 0.208400 11 0.05
C 1 0.697900 0.632800 0.791600 11 0.05
C 1 0.802100 0.132800 0.208400 11 0.05
C 1 0.197900 0.132800 0.791600 11 0.05
C 1 0.007700 0.321300 0.313000 11 0.05
C 1 0.992300 0.321300 0.687000 11 0.05
C 1 0.507700 0.821300 0.313000 11 0.05
C 1 0.492300 0.821300 0.687000 11 0.05
C 1 0.230300 0.333100 0.649700 11 0.05
C 1 0.769700 0.333100 0.350300 11 0.05
C 1 0.730300 0.833100 0.649700 11 0.05
C 1 0.269700 0.833100 0.350300 11 0.05
C 1 0.071700 0.271300 0.782900 11 0.05
C 1 0.928300 0.271300 0.217100 11 0.05
C 1 0.571700 0.771300 0.782900 11 0.05
C 1 0.428300 0.771300 0.217100 11 0.05
C 1 0.276200 0.337500 0.168600 11 0.05
C 1 0.723800 0.337500 0.831400 11 0.05
C 1 0.776200 0.837500 0.168600 11 0.05
C 1 0.223800 0.837500 0.831400 11 0.05
C 1 0.223700 0.551100 0.163200 11 0.05
C 1 0.776300 0.551100 0.836800 11 0.05
C 1 0.723700 0.051100 0.163200 11 0.05
C 1 0.276300 0.051100 0.836800 11 0.05
C 1 0.246100 0.536200 0.255700 11 0.05
C 1 0.753900 0.536200 0.744300 11 0.05
C 1 0.746100 0.036200 0.255700 11 0.05
C 1 0.253900 0.036200 0.744300 11 0.05
C 1 0.357300 0.033800 0.140900 11 0.05
C 1 0.642700 0.033800 0.859100 11 0.05
C 1 0.857300 0.533800 0.140900 11 0.05
C 1 0.142700 0.533800 0.859100 11 0.05
C 1 0.406400 0.281000 0.031100 11 0.05
C 1 0.593600 0.281000 0.968900 11 0.05
C 1 0.906400 0.781000 0.031100 11 0.05
C 1 0.093600 0.781000 0.968900 11 0.05
C 1 0.332800 0.582000 -0.015900 11 0.05
C 1 0.667200 0.582000 1.015900 11 0.05
C 1 0.802700 -0.066000 0.211300 11 0.05
C 1 0.832800 0.082000 -0.015900 11 0.05
C 1 0.917200 -0.033200 0.216500 11 0.05
C 1 0.082800 -0.033200 0.783500 11 0.05
C 1 0.197300 -0.066000 0.788700 11 0.05
C 1 0.167200 0.082000 1.015900 11 0.05
C 1 0.746100 1.036200 0.255700 11 0.05
S 1 0.845100 1.035600 0.197900 11 0.05
S 1 0.154900 1.035600 0.802100 11 0.05
C 1 0.253900 1.036200 0.744300 11 0.05
C 1 -0.020300 0.789000 0.242800 11 0.05
C 1 1.020300 0.789000 0.757200 11 0.05
S 1 0.154900 0.035600 -0.197900 11 0.05
S 1 0.845100 0.035600 1.197900 11 0.05
S 1 0.654900 0.535600 -0.197900 11 0.05
S 1 0.345100 0.535600 1.197900 11 0.05
C 1 1.020000 0.000000 0.268200 11 0.05
C 1 -0.020000 0.000000 0.731800 11 0.05
C 1 0.276300 0.051100 -0.163200 11 0.05
C 1 0.723700 0.051100 1.163200 11 0.05
C 1 0.776300 0.551100 -0.163200 11 0.05
C 1 0.223700 0.551100 1.163200 11 0.05
C 1 0.966500 1.046400 0.242300 11 0.05
C 1 0.033500 1.046400 0.757700 11 0.05
C 1 -0.033500 0.046400 0.242300 11 0.05
C 1 0.030200 -0.140400 0.259000 11 0.05
C 1 0.969800 -0.140400 0.741000 11 0.05
C 1 1.033500 0.046400 0.757700 11 0.05
C 1 1.030200 0.859600 0.259000 11 0.05
C 1 -0.030200 0.859600 0.741000 11 0.05
C 1 1.032500 0.520900 0.587600 11 0.05
C 1 -0.032500 0.520900 0.412400 11 0.05
C 1 0.177500 0.564100 -0.037800 11 0.05
C 1 0.677500 0.064100 -0.037800 11 0.05
C 1 0.724900 0.125700 -0.011400 11 0.05
C 1 0.271500 0.613200 -0.120600 11 0.05
C 1 0.320300 0.720900 -0.088600 11 0.05
C 1 0.679700 0.720900 1.088600 11 0.05
C 1 0.728500 0.613200 1.120600 11 0.05
C 1 0.771500 0.113200 -0.120600 11 0.05
C 1 0.820300 0.220900 -0.088600 11 0.05
C 1 0.179700 0.220900 1.088600 11 0.05
C 1 0.228500 0.113200 1.120600 11 0.05
C 1 0.832800 1.082000 -0.015900 11 0.05
C 1 0.846800 1.156400 0.312900 11 0.05
C 1 0.802100 1.132800 0.208400 11 0.05
C 1 0.153200 1.156400 0.687100 11 0.05
C 1 0.197900 1.132800 0.791600 11 0.05
C 1 0.167200 1.082000 1.015900 11 0.05
C 1 0.082800 -0.033200 -0.216500 11 0.05
C 1 0.197300 -0.066000 -0.211300 11 0.05
C 1 0.153200 0.156400 -0.312900 11 0.05
C 1 0.197900 0.132800 -0.208400 11 0.05
C 1 0.802700 -0.066000 1.211300 11 0.05
C 1 0.846800 0.156400 1.312900 11 0.05
C 1 0.802100 0.132800 1.208400 11 0.05
C 1 0.917200 -0.033200 1.216500 11 0.05
C 1 0.582800 0.466800 -0.216500 11 0.05
C 1 0.697300 0.434000 -0.211300 11 0.05
C 1 0.653200 0.656400 -0.312900 11 0.05
C 1 0.697900 0.632800 -0.208400 11 0.05
C 1 0.302700 0.434000 1.211300 11 0.05
C 1 0.346800 0.656400 1.312900 11 0.05
C 1 0.302100 0.632800 1.208400 11 0.05
C 1 0.417200 0.466800 1.216500 11 0.05
C 1 0.771500 1.113200 -0.120600 11 0.05
C 1 0.820300 1.220900 -0.088600 11 0.05
C 1 0.179700 1.220900 1.088600 11 0.05
C 1 0.228500 1.113200 1.120600 11 0.05
C 1 0.079500 -0.170600 -0.200300 11 0.05
C 1 0.033500 0.046400 -0.242300 11 0.05
C 1 0.223800 -0.162500 -0.168600 11 0.05
C 1 0.253900 0.036200 -0.255700 11 0.05
C 1 0.776200 -0.162500 1.168600 11 0.05
C 1 0.746100 0.036200 1.255700 11 0.05
C 1 0.920500 -0.170600 1.200300 11 0.05
C 1 0.966500 0.046400 1.242300 11 0.05
C 1 0.579500 0.329400 -0.200300 11 0.05
C 1 0.533500 0.546400 -0.242300 11 0.05
C 1 0.723800 0.337500 -0.168600 11 0.05
C 1 0.753900 0.536200 -0.255700 11 0.05
C 1 0.276200 0.337500 1.168600 11 0.05
C 1 0.246100 0.536200 1.255700 11 0.05
C 1 0.420500 0.329400 1.200300 11 0.05
C 1 0.466500 0.546400 1.242300 11 0.05
C 1 0.091600 -0.203000 0.282800 11 0.05
C 1 1.091600 0.797000 0.282800 11 0.05
C 1 -0.091600 0.797000 0.717200 11 0.05
C 1 0.908400 -0.203000 0.717200 11 0.05
C 1 0.224900 0.625700 -0.011400 11 0.05
C 1 0.071500 1.037600 0.281600 11 0.05
C 1 1.071500 0.037600 0.281600 11 0.05
C 1 -0.071500 0.037600 0.718400 11 0.05
C 1 0.928500 1.037600 0.718400 11 0.05
C 1 0.776200 -0.162500 0.168600 11 0.05
C 1 0.223800 -0.162500 0.831400 11 0.05
C 1 0.642700 0.033800 -0.140900 11 0.05
C 1 0.142700 0.533800 -0.140900 11 0.05
C 1 0.406400 0.281000 1.031100 11 0.05
C 1 0.593600 0.281000 -0.031100 11 0.05
C 1 0.906400 -0.219000 1.031100 11 0.05
C 1 0.093600 -0.219000 -0.031100 11 0.05
MOLE   2
HKLF 4                                                                          
END  
